16
0 1 19
0 8 19
0 9 15
0 12 13
1 4 8
1 5 2
2 0 2
2 9 3
3 2 6
3 5 9
3 10 11
4 1 6
4 6 12
4 7 8
4 10 5
4 15 4
5 2 10
5 7 20
5 12 3
6 2 16
6 5 1
6 8 17
6 9 11
7 3 15
7 8 18
7 13 7
8 10 19
8 11 5
9 0 16
9 1 10
9 2 8
9 8 8
10 2 6
10 3 16
10 9 2
10 13 8
10 14 16
11 2 14
11 3 9
11 8 11
11 12 11
11 14 14
12 1 6
12 3 5
12 4 12
12 6 16
12 7 7
12 13 6
12 15 11
13 0 12
13 4 15
13 7 14
13 12 13
13 14 12
14 0 5
15 0 2
15 3 14
